NAME : instance_5_900
TYPE : TSP
DIMENSION : 5
EDGE_WEIGHT_TYPE : EUC_2D
LOWER : 0
UPPER : 100
NODE_COORD_SECTION
1 0.8691071998 9.9993559066
2 85.0031340495 92.0362394303
3 88.1618746091 37.2706112219
4 33.5234274622 63.9163154177
5 47.4303037859 22.2177891526
EOF
